results_rootrelaxation/bin018_050_019.srr.sol
solution status: optimal solution found
objective value:                                    0
_var149_                           0.0813350211921839 	(obj:0)
_var512_                            0.235416099781288 	(obj:0)
_var551_                            0.126836488075308 	(obj:0)
_var1394_                          0.0659703507978088 	(obj:0)
_var1888_                           0.212870083222707 	(obj:0)
_var2715_                           0.406730797715072 	(obj:0)
_var2719_                           0.078897823448538 	(obj:0)
_var2735_                           0.294335250525604 	(obj:0)
_var2741_                           0.300546058779308 	(obj:0)
_var2745_                           0.154261261306079 	(obj:0)
_var2747_                          0.0071393899406622 	(obj:0)
_var2748_                           0.118472757969696 	(obj:0)
_var2749_                          0.0863677837723875 	(obj:0)
_var2758_                           0.138146301837898 	(obj:0)
_var2759_                           0.147434028696078 	(obj:0)
_var2762_                           0.201227202445303 	(obj:0)
_var2764_                          0.0174090497237358 	(obj:0)
_var2765_                          0.0394057037929922 	(obj:0)
_var2767_                          0.0445440723246207 	(obj:0)
_var2781_                          0.0486296038680216 	(obj:0)
_var2782_                           0.245911835416396 	(obj:0)
_var2783_                          0.0782019288887191 	(obj:0)
_var2784_                           0.333381398665764 	(obj:0)
_var2797_                           0.118095842415352 	(obj:0)
_var2800_                          0.0220827418608099 	(obj:0)
_var2801_                           0.307641467275768 	(obj:0)
_var2802_                           0.465752342863046 	(obj:0)
_var2804_                          0.0252175949866345 	(obj:0)
_var2805_                          0.0118764256468327 	(obj:0)
_var2806_                           0.327959665985884 	(obj:0)
_var2808_                          0.0400415707268014 	(obj:0)
_var2811_                           0.167074784172212 	(obj:0)
_var2812_                          0.0360623673336709 	(obj:0)
_var2817_                           0.109097677745293 	(obj:0)
_var2818_                          0.0492447632132839 	(obj:0)
_var2819_                          0.0726450462680528 	(obj:0)
_var2820_                          0.0600596370561565 	(obj:0)
_var2822_                          0.0202518705999856 	(obj:0)
_var2824_                           0.186495647447474 	(obj:0)
_var2825_                           0.216004901150295 	(obj:0)
_var2827_                           0.103221283738427 	(obj:0)
_var2828_                           0.295023277421223 	(obj:0)
_var2830_                           0.296571507452547 	(obj:0)
_var2834_                          0.0597741873053974 	(obj:0)
_var2837_                           0.170215745319818 	(obj:0)
_var2838_                          0.0360722458312515 	(obj:0)
_var2839_                           0.169527480694599 	(obj:0)
_var2840_                          0.0866014441123036 	(obj:0)
_var2841_                           0.236570723006823 	(obj:0)
_var2843_                          0.0302365661858489 	(obj:0)
_var2845_                           0.155665445058343 	(obj:0)
_var2847_                          0.0211671345455205 	(obj:0)
_var2848_                           0.154922831372126 	(obj:0)
_var2849_                           0.131695660837726 	(obj:0)
_var2852_                          0.0663694074661508 	(obj:0)
_var2853_                           0.184777507509119 	(obj:0)
_var2856_                           0.181388846210305 	(obj:0)
_var2857_                           0.174960296545152 	(obj:0)
_var2858_                          0.0920337909508524 	(obj:0)
_var2859_                           0.237985122757015 	(obj:0)
_var2860_                         0.00913514343812949 	(obj:0)
_var2861_                          0.0530730082728313 	(obj:0)
_var2862_                          0.0178801471733312 	(obj:0)
_var2865_                          0.0475164724229521 	(obj:0)
_var2866_                           0.144541417001781 	(obj:0)
_var2868_                          0.0371226449749545 	(obj:0)
_var2871_                           0.186458129431271 	(obj:0)
_var2872_                           0.240885759717099 	(obj:0)
_var2876_                           0.316977290257794 	(obj:0)
_var2877_                          0.0854526914003785 	(obj:0)
_var2879_                          0.0340418337454355 	(obj:0)
_var2880_                           0.250734223891448 	(obj:0)
_var2882_                         0.00287097137805381 	(obj:0)
_var2883_                          0.0659588861936669 	(obj:0)
_var2884_                           0.169818221600052 	(obj:0)
_var2885_                          0.0419901016231504 	(obj:0)
_var2886_                         0.00336218277719225 	(obj:0)
_var2887_                          0.0674918227217461 	(obj:0)
_var2889_                           0.151456302179276 	(obj:0)
_var2891_                          0.0229837991068225 	(obj:0)
_var2894_                          0.0242398753247183 	(obj:0)
_var2895_                           0.265209184711634 	(obj:0)
_var2896_                            0.21464838832527 	(obj:0)
_var2897_                          0.0307307320620993 	(obj:0)
_var2899_                           0.130453777150835 	(obj:0)
_var2900_                           0.232254108011208 	(obj:0)
_var2901_                           0.130786325306276 	(obj:0)
_var2905_                           0.104467421724737 	(obj:0)
_var2906_                           0.289017120714611 	(obj:0)
_var2907_                           0.329085312974109 	(obj:0)
_var2909_                           0.123621782746773 	(obj:0)
_var2910_                          0.0207893897525261 	(obj:0)
_var2914_                           0.107044915231971 	(obj:0)
_var2915_                          0.0981210807694238 	(obj:0)
_var2916_                           0.196228752077414 	(obj:0)
_var2917_                          0.0226843433382815 	(obj:0)
_var2918_                           0.129681629098914 	(obj:0)
_var2922_                          0.0836045314877567 	(obj:0)
_var2924_                          0.0541240992493337 	(obj:0)
_var2928_                           0.132235806261595 	(obj:0)
_var2929_                          0.0483253862282978 	(obj:0)
_var2933_                           0.131033821784969 	(obj:0)
_var2934_                           0.214489439696221 	(obj:0)
_var2940_                          0.0225654038580787 	(obj:0)
_var2942_                            0.05298063838017 	(obj:0)
_var2945_                         0.00274225840697317 	(obj:0)
_var2947_                          0.0583175130841713 	(obj:0)
_var2948_                           0.133343817635305 	(obj:0)
_var2949_                          0.0507045040403068 	(obj:0)
_var2950_                           0.145923390346753 	(obj:0)
_var2951_                          0.0880809079675821 	(obj:0)
_var2952_                           0.160547260400236 	(obj:0)
_var2953_                           0.145379381622035 	(obj:0)
_var2955_                           0.181811660263982 	(obj:0)
_var2956_                           0.100859284454656 	(obj:0)
_var2957_                          0.0108372116031444 	(obj:0)
_var2960_                          0.0440705201469281 	(obj:0)
_var2962_                          0.0357383894969531 	(obj:0)
_var2963_                          0.0500042884580902 	(obj:0)
_var2965_                           0.297671605762941 	(obj:0)
_var2966_                          0.0415401876870045 	(obj:0)
_var2967_                          0.0674059587495599 	(obj:0)
_var2971_                          0.0686770126704067 	(obj:0)
_var2972_                          0.0275216203740541 	(obj:0)
_var2974_                           0.050450121413783 	(obj:0)
_var2975_                          0.0337482613263956 	(obj:0)
_var2976_                           0.104010615619097 	(obj:0)
_var2977_                          0.0817914359198617 	(obj:0)
_var2978_                           0.142360565630831 	(obj:0)
_var2980_                           0.153865007884984 	(obj:0)
_var2983_                          0.0907609887070389 	(obj:0)
_var2984_                         0.00554818230198548 	(obj:0)
_var2985_                          0.0128747948172251 	(obj:0)
_var2986_                         0.00537626641543827 	(obj:0)
_var2988_                          0.0454446744146293 	(obj:0)
_var2991_                          0.0215762033648425 	(obj:0)
_var2992_                           0.134027352500629 	(obj:0)
_var2993_                          0.0146828591081238 	(obj:0)
_var2996_                             0.1531660135477 	(obj:0)
_var2997_                          0.0535266261914965 	(obj:0)
_var2999_                         0.00295501946550723 	(obj:0)
_var3000_                          0.0456461330467769 	(obj:0)
_var3002_                         0.00767901342172886 	(obj:0)
_var3004_                            0.01325275449218 	(obj:0)
_var3008_                          0.0730242128827416 	(obj:0)
_var3010_                         0.00295059791973945 	(obj:0)
_var3012_                          0.0258411597247375 	(obj:0)
_var3013_                          0.0883608953204975 	(obj:0)
_var3014_                           0.125341185818161 	(obj:0)
_var3015_                          0.0573486110200157 	(obj:0)
_var3016_                           0.014620830541751 	(obj:0)
_var3019_                         0.00656338518215979 	(obj:0)
